NAME: tsp-a-12
TYPE: TSP
COMMENT: min_cost = 426.98
DIMENSION: 12
EDGE_WEIGHT_TYPE: EUC_2D
NODE_COORD_SECTION
1 53 136
2 105 86
3 22 22
4 8 124
5 86 101
6 2 139
7 119 30
8 26 26
9 43 75
10 62 41
11 88 20
12 42 52
EOF
